(set-logic ALL)
(declare-fun seed0_T_1 () Bool)
(declare-fun seed0_T_2 () Bool)
(declare-fun seed0_T_3 () Bool)
(declare-fun seed0_T_4 () Bool)
(declare-fun seed0_T_5 () Bool)
(declare-fun seed0_T_6 () Bool)
(declare-fun seed0_T_7 () Bool)
(declare-fun seed0_var_0xINPUT_160006 () String)
(assert (and (or (= seed0_T_1 (not (= "" seed0_var_0xINPUT_160006))) (or (str.prefixof (str.++ seed0_var_0xINPUT_160006 "IL") (str.++ seed0_var_0xINPUT_160006 "19BTeo")) (str.suffixof (str.++ seed0_var_0xINPUT_160006 "IMAVCNjpkqdv5TgosB7") (str.++ seed0_var_0xINPUT_160006 "ZCM1s0AnpcTE")))) (or seed0_T_1 (xor (str.< (str.++ seed0_var_0xINPUT_160006 "2xHm7BbXjZTzV4uR") (str.++ seed0_var_0xINPUT_160006 "xfoncmgDKyW1TY")) (str.< (str.++ seed0_var_0xINPUT_160006 "dWiJPu3zblL") (str.++ seed0_var_0xINPUT_160006 "mFiKpb8aOgVjzCHYhqQ")))) (or (= seed0_T_2 (not (= "" seed0_var_0xINPUT_160006))) (or (str.<= (str.++ seed0_var_0xINPUT_160006 "qdf8LlRWhm3CDUPOp") (str.++ seed0_var_0xINPUT_160006 "dq")) (str.prefixof (str.++ seed0_var_0xINPUT_160006 "dKqFWPUOf42JV") (str.++ seed0_var_0xINPUT_160006 "eSJ4AR5UmWKCXZ")))) (or seed0_T_2 (=> (str.contains (str.++ seed0_var_0xINPUT_160006 "qz6eBpUORK0mSfit") (str.++ seed0_var_0xINPUT_160006 "qCFmVKlPNgkZRpoX27sM")) (str.contains (str.++ seed0_var_0xINPUT_160006 "re") (str.++ seed0_var_0xINPUT_160006 "RJav")))) (or (= seed0_T_3 (not (= seed0_var_0xINPUT_160006 ""))) (or (str.< (str.++ seed0_var_0xINPUT_160006 "") (str.++ seed0_var_0xINPUT_160006 "LCmq")) (str.contains (str.++ seed0_var_0xINPUT_160006 "kZavgxAhbrIK8j") (str.++ seed0_var_0xINPUT_160006 "eRg840ZNnxJQD7kmlbzU")))) (or seed0_T_3 (xor (str.< (str.++ seed0_var_0xINPUT_160006 "J") (str.++ seed0_var_0xINPUT_160006 "")) (str.contains (str.++ seed0_var_0xINPUT_160006 "") (str.++ seed0_var_0xINPUT_160006 "u51D0A3PmXHqyGfB2")))) (or (= seed0_T_4 (not (= "" seed0_var_0xINPUT_160006))) (or (str.<= (str.++ seed0_var_0xINPUT_160006 "WO") (str.++ seed0_var_0xINPUT_160006 "X")) (str.< (str.++ seed0_var_0xINPUT_160006 "Q1WVRBerMtLnlAxv") (str.++ seed0_var_0xINPUT_160006 "qbp0dLKaz")))) (or seed0_T_4 (not (str.<= (str.++ seed0_var_0xINPUT_160006 "") (str.++ seed0_var_0xINPUT_160006 "")))) (or (= seed0_T_5 (= seed0_var_0xINPUT_160006 "")) (or (str.<= (str.++ seed0_var_0xINPUT_160006 "5CicW7s") (str.++ seed0_var_0xINPUT_160006 "5o3puLriZ1IX")) (str.< (str.++ seed0_var_0xINPUT_160006 "B3uAqHs5") (str.++ seed0_var_0xINPUT_160006 "kB7EM36fZa")))) (or (= seed0_T_6 (not seed0_T_5)) (and (str.contains (str.++ seed0_var_0xINPUT_160006 "CPI5") (str.++ seed0_var_0xINPUT_160006 "tL8fvpWQCFUK5Ni")) (str.prefixof (str.++ seed0_var_0xINPUT_160006 "KbD5UYj7ixsv9") (str.++ seed0_var_0xINPUT_160006 "yNfqsz")))) (or seed0_T_6 (not (str.contains (str.++ seed0_var_0xINPUT_160006 "bH7ipX8o9E") (str.++ seed0_var_0xINPUT_160006 "HJfG")))) (or (= seed0_T_7 (not (= seed0_var_0xINPUT_160006 ""))) (not (str.<= (str.++ seed0_var_0xINPUT_160006 "HAWabzIlMce718") (str.++ seed0_var_0xINPUT_160006 "nmfFB")))) (or seed0_T_7 (not (str.< (str.++ seed0_var_0xINPUT_160006 "9S1ZQiXy6g") (str.++ seed0_var_0xINPUT_160006 "v0KT384dZXeFmaO9ox"))))))
(check-sat)
(exit)